# Objective value = 2.9248838532284810e+02
x[0] 0
x[1] 0
x[2] 1
x[3] 0
x[4] 0
x[5] 1
x[6] 1
x[7] 1
x[8] 1
x[9] 0
x[10] 0
x[11] 0
x[12] 1
x[13] 1
x[14] 1
x[15] 0
x[16] 1
x[17] 0
x[18] 1
x[19] 0
x[20] 1
x[21] 0
x[22] 0
x[23] 1
x[24] 1
x[25] 1
x[26] 1
x[27] 1
x[28] 0
x[29] 1
x[30] 0
x[31] 1
x[32] 1
x[33] 0
x[34] 1
x[35] 0
x[36] 1
x[37] 1
x[38] 0
x[39] 1
x[40] 0
x[41] 0
x[42] 0
x[43] 1
x[44] 1
x[45] 1
x[46] 1
x[47] 0
x[48] 1
x[49] 1
x[50] 1
x[51] 0
x[52] 0
x[53] 1
x[54] 1
x[55] 0
x[56] 1
x[57] 1
x[58] 0
x[59] 1
x[60] 0
x[61] 0
x[62] 1
x[63] 0
x[64] 0
x[65] 0
x[66] 0
x[67] 1
x[68] 1
x[69] 1
x[70] 0
x[71] 1
x[72] 0
x[73] 1
x[74] 0
x[75] 0
x[76] 0
x[77] 1
x[78] 0
x[79] 0
x[80] 1
x[81] 0
x[82] 1
x[83] 1
x[84] 1
x[85] 1
x[86] 1
x[87] 0
x[88] 0
x[89] 0
x[90] 0
x[91] 0
x[92] 1
x[93] 1
x[94] 0
x[95] 1
x[96] 0
x[97] 1
x[98] 0
x[99] 0
x[100] 1
x[101] 0
x[102] 1
x[103] 0
x[104] 1
x[105] 0
x[106] 1
x[107] 0
x[108] 0
x[109] 1
x[110] 0
x[111] 0
x[112] 1
x[113] 0
x[114] 0
x[115] 1
x[116] 1
x[117] 0
x[118] 0
x[119] 0
x[120] 1
x[121] 0
x[122] 0
x[123] 0
x[124] 0
x[125] 0
x[126] 1
x[127] 1
x[128] 1
x[129] 1
x[130] 1
x[131] 0
x[132] 1
x[133] 1
x[134] 0
x[135] 1
x[136] 0
x[137] 1
x[138] 0
x[139] 1
x[140] 0
x[141] 0
x[142] 1
x[143] 0
x[144] 1
x[145] 0
x[146] 1
x[147] 0
x[148] 0
x[149] 1
x[150] 0
x[151] 0
x[152] 1
x[153] 1
x[154] 0
x[155] 0
x[156] 0
x[157] 0
x[158] 0
x[159] 1
x[160] 0
x[161] 0
x[162] 1
x[163] 0
x[164] 0
x[165] 1
x[166] 0
x[167] 0
x[168] 0
x[169] 1
x[170] 0
x[171] 0
x[172] 0
x[173] 1
x[174] 1
x[175] 1
x[176] 0
x[177] 1
x[178] 1
x[179] 0
x[180] 1
x[181] 1
x[182] 1
x[183] 1
x[184] 0
x[185] 1
x[186] 1
x[187] 0
x[188] 1
x[189] 1
x[190] 0
x[191] 1
x[192] 0
x[193] 1
x[194] 1
x[195] 1
x[196] 1
x[197] 0
x[198] 0
x[199] 0
x[200] 0
x[201] 1
x[202] 1
x[203] 1
x[204] 1
x[205] 0
x[206] 0
x[207] 0
x[208] 0
x[209] 1
x[210] 0
x[211] 0
x[212] 0
x[213] 0
x[214] 1
x[215] 1
x[216] 0
x[217] 1
x[218] 1
x[219] 0
x[220] 0
x[221] 0
x[222] 0
x[223] 0
x[224] 1
x[225] 1
x[226] 1
x[227] 0
x[228] 1
x[229] 1
x[230] 1
x[231] 0
x[232] 0
x[233] 0
x[234] 1
x[235] 0
x[236] 0
x[237] 1
x[238] 1
x[239] 0
x[240] 1
x[241] 1
x[242] 0
x[243] 0
x[244] 0
x[245] 0
x[246] 1
x[247] 1
x[248] 0
x[249] 1
x[250] 0
x[251] 1
x[252] 0
x[253] 1
x[254] 1
x[255] 1
x[256] 0
x[257] 0
x[258] 0
x[259] 0
x[260] 0
x[261] 0
x[262] 0
x[263] 1
x[264] 0
x[265] 0
x[266] 1
x[267] 1
x[268] 1
x[269] 1
x[270] 0
x[271] 0
x[272] 0
x[273] 0
x[274] 1
x[275] 1
x[276] 1
x[277] 1
x[278] 0
x[279] 1
x[280] 1
x[281] 0
x[282] 0
x[283] 1
x[284] 0
x[285] 1
x[286] 0
x[287] 1
x[288] 0
x[289] 1
x[290] 0
x[291] 1
x[292] 1
x[293] 0
x[294] 0
x[295] 0
x[296] 0
x[297] 1
x[298] 1
x[299] 1
x[300] 1
x[301] 0
x[302] 0
x[303] 0
x[304] 1
x[305] 0
x[306] 0
x[307] 0
x[308] 1
x[309] 1
x[310] 1
x[311] 0
x[312] 1
x[313] 1
x[314] 1
x[315] 1
x[316] 0
x[317] 0
x[318] 1
x[319] 1
x[320] 0
x[321] 0
x[322] 0
x[323] 1
x[324] 1
x[325] 0
x[326] 1
x[327] 1
x[328] 1
x[329] 1
x[330] 0
x[331] 1
x[332] 0
x[333] 1
x[334] 0
x[335] 0
x[336] 1
x[337] 1
x[338] 1
x[339] 0
x[340] 0
x[341] 0
x[342] 0
x[343] 1
x[344] 1
x[345] 0
x[346] 1
x[347] 1
x[348] 1
x[349] 0
x[350] 1
x[351] 1
x[352] 1
x[353] 1
x[354] 0
x[355] 0
x[356] 0
x[357] 0
x[358] 0
x[359] 1
x[360] 0
x[361] 0
x[362] 0
x[363] 0
x[364] 1
x[365] 1
x[366] 0
x[367] 1
x[368] 0
x[369] 0
x[370] 1
x[371] 0
x[372] 1
x[373] 1
x[374] 0
x[375] 0
x[376] 0
x[377] 1
x[378] 1
x[379] 1
x[380] 0
x[381] 0
x[382] 0
x[383] 0
x[384] 1
x[385] 0
x[386] 0
x[387] 1
x[388] 0
x[389] 0
x[390] 0
x[391] 0
x[392] 0
x[393] 1
x[394] 0
x[395] 0
x[396] 1
x[397] 0
x[398] 0
x[399] 1
x[400] 1
x[401] 1
x[402] 0
x[403] 0
x[404] 0
x[405] 0
x[406] 0
x[407] 0
x[408] 1
x[409] 1
x[410] 1
x[411] 1
x[412] 1
x[413] 1
x[414] 0
x[415] 0
x[416] 1
x[417] 1
x[418] 0
x[419] 0
x[420] 1
x[421] 1
x[422] 0
x[423] 0
x[424] 0
x[425] 1
x[426] 0
x[427] 0
x[428] 1
x[429] 0
x[430] 1
x[431] 1
x[432] 0
x[433] 0
x[434] 0
x[435] 1
x[436] 0
x[437] 1
x[438] 1
x[439] 0
x[440] 1
x[441] 0
x[442] 0
x[443] 1
x[444] 0
x[445] 0
x[446] 1
x[447] 1
x[448] 1
x[449] 1
x[450] 1
x[451] 0
x[452] 1
x[453] 1
x[454] 0
x[455] 1
x[456] 1
x[457] 1
x[458] 0
x[459] 0
x[460] 1
x[461] 0
x[462] 1
x[463] 1
x[464] 0
x[465] 1
x[466] 1
x[467] 0
x[468] 1
x[469] 0
x[470] 0
x[471] 0
x[472] 0
x[473] 1
x[474] 0
x[475] 1
x[476] 0
x[477] 0
x[478] 1
x[479] 1
x[480] 0
x[481] 1
x[482] 1
x[483] 1
x[484] 1
x[485] 0
x[486] 1
x[487] 1
x[488] 0
x[489] 0
x[490] 1
x[491] 0
x[492] 1
x[493] 1
x[494] 1
x[495] 1
x[496] 0
x[497] 1
x[498] 1
x[499] 1
x[500] 0
x[501] 0
x[502] 0
x[503] 1
x[504] 1
x[505] 0
x[506] 0
x[507] 1
x[508] 1
x[509] 0
x[510] 1
x[511] 1
x[512] 1
x[513] 0
x[514] 1
x[515] 1
x[516] 0
x[517] 0
x[518] 0
x[519] 0
x[520] 0
x[521] 1
x[522] 0
x[523] 0
x[524] 0
x[525] 1
x[526] 1
x[527] 1
x[528] 1
x[529] 1
x[530] 1
x[531] 0
x[532] 1
x[533] 0
x[534] 1
x[535] 0
x[536] 1
x[537] 1
x[538] 0
x[539] 0
x[540] 0
x[541] 0
x[542] 0
x[543] 1
x[544] 0
x[545] 0
x[546] 0
x[547] 0
x[548] 0
x[549] 0
x[550] 1
x[551] 1
x[552] 0
x[553] 0
x[554] 1
x[555] 0
x[556] 0
x[557] 0
x[558] 0
x[559] 0
x[560] 1
x[561] 1
x[562] 0
x[563] 1
x[564] 0
x[565] 1
x[566] 0
x[567] 1
x[568] 0
x[569] 0
x[570] 0
x[571] 0
x[572] 1
x[573] 0
x[574] 0
x[575] 1
x[576] 0
x[577] 0
x[578] 0
x[579] 0
x[580] 1
x[581] 0
x[582] 1
x[583] 0
x[584] 0
x[585] 1
x[586] 1
x[587] 1
x[588] 1
x[589] 0
x[590] 0
x[591] 1
x[592] 1
x[593] 0
x[594] 1
x[595] 0
x[596] 0
x[597] 1
x[598] 0
x[599] 0
x[600] 1
x[601] 1
x[602] 0
x[603] 0
x[604] 0
x[605] 0
x[606] 1
x[607] 1
x[608] 0
x[609] 1
x[610] 0
x[611] 0
x[612] 0
x[613] 0
x[614] 1
x[615] 0
x[616] 0
x[617] 0
x[618] 0
x[619] 1
x[620] 0
x[621] 0
x[622] 1
x[623] 0
x[624] 0
x[625] 1
x[626] 0
x[627] 0
x[628] 1
x[629] 1
x[630] 0
x[631] 0
x[632] 0
x[633] 1
x[634] 0
x[635] 1
x[636] 0
x[637] 1
x[638] 1
x[639] 0
x[640] 1
x[641] 1
x[642] 1
x[643] 0
x[644] 1
x[645] 1
x[646] 1
x[647] 0
x[648] 0
x[649] 1
x[650] 0
x[651] 0
x[652] 0
x[653] 0
x[654] 0
x[655] 0
x[656] 1
x[657] 0
x[658] 1
x[659] 0
x[660] 0
x[661] 1
x[662] 1
x[663] 1
x[664] 0
x[665] 0
x[666] 0
x[667] 1
x[668] 0
x[669] 0
x[670] 0
x[671] 0
x[672] 0
x[673] 0
x[674] 0
x[675] 0
x[676] 0
x[677] 0
x[678] 0
x[679] 0
x[680] 0
x[681] 0
x[682] 0
x[683] 1
x[684] 0
x[685] 0
x[686] 1
x[687] 0
x[688] 0
x[689] 0
x[690] 0
x[691] 1
x[692] 0
x[693] 1
x[694] 1
x[695] 0
x[696] 0
x[697] 0
x[698] 1
x[699] 0
x[700] 0
x[701] 1
x[702] 1
x[703] 1
x[704] 0
x[705] 0
x[706] 0
x[707] 1
x[708] 1
x[709] 1
x[710] 0
x[711] 1
x[712] 0
x[713] 0
x[714] 1
x[715] 0
x[716] 0
x[717] 1
x[718] 1
x[719] 0
x[720] 0
x[721] 1
x[722] 1
x[723] 1
x[724] 1
x[725] 1
x[726] 1
x[727] 1
x[728] 0
x[729] 0
x[730] 1
x[731] 1
x[732] 0
x[733] 1
x[734] 0
x[735] 0
x[736] 0
x[737] 1
x[738] 1
x[739] 1
x[740] 0
x[741] 1
x[742] 1
x[743] 1
x[744] 1
x[745] 0
x[746] 1
x[747] 0
x[748] 1
x[749] 0
x[750] 1
x[751] 0
x[752] 1
x[753] 0
x[754] 0
x[755] 0
x[756] 1
x[757] 1
x[758] 0
x[759] 0
x[760] 0
x[761] 1
x[762] 1
x[763] 1
x[764] 0
x[765] 0
x[766] 0
x[767] 1
x[768] 1
x[769] 1
x[770] 0
x[771] 0
x[772] 1
x[773] 0
x[774] 1
x[775] 1
x[776] 0
x[777] 0
x[778] 0
x[779] 1
x[780] 0
x[781] 0
x[782] 0
x[783] 0
x[784] 0
x[785] 0
x[786] 1
x[787] 0
x[788] 0
x[789] 1
x[790] 1
x[791] 0
x[792] 1
x[793] 1
x[794] 0
x[795] 0
x[796] 0
x[797] 1
x[798] 1
x[799] 1
x[800] 0
x[801] 0
x[802] 0
x[803] 1
x[804] 0
x[805] 0
x[806] 0
x[807] 1
x[808] 1
x[809] 1
x[810] 1
x[811] 1
x[812] 0
x[813] 0
x[814] 1
x[815] 1
x[816] 0
x[817] 0
x[818] 0
x[819] 1
x[820] 1
x[821] 1
x[822] 0
x[823] 1
x[824] 0
x[825] 1
x[826] 0
x[827] 1
x[828] 1
x[829] 1
x[830] 1
x[831] 1
x[832] 1
x[833] 1
x[834] 1
x[835] 0
x[836] 0
x[837] 1
x[838] 1
x[839] 1
x[840] 0
x[841] 1
x[842] 0
x[843] 0
x[844] 1
x[845] 1
x[846] 1
x[847] 0
x[848] 1
x[849] 0
x[850] 1
x[851] 1
x[852] 1
x[853] 0
x[854] 0
x[855] 1
x[856] 0
x[857] 0
x[858] 0
x[859] 1
x[860] 1
x[861] 0
x[862] 1
x[863] 0
x[864] 0
x[865] 1
x[866] 0
x[867] 1
x[868] 1
x[869] 1
x[870] 0
x[871] 0
x[872] 0
x[873] 1
x[874] 1
x[875] 1
x[876] 1
x[877] 1
x[878] 0
x[879] 1
x[880] 1
x[881] 0
x[882] 0
x[883] 1
x[884] 0
x[885] 0
x[886] 0
x[887] 1
x[888] 0
x[889] 0
x[890] 0
x[891] 0
x[892] 0
x[893] 1
x[894] 1
x[895] 0
x[896] 1
x[897] 1
x[898] 1
x[899] 0
x[900] 1
x[901] 0
x[902] 0
x[903] 0
x[904] 1
x[905] 0
x[906] 0
x[907] 0
x[908] 0
x[909] 0
x[910] 1
x[911] 1
x[912] 1
x[913] 0
x[914] 0
x[915] 0
x[916] 1
x[917] 0
x[918] 0
x[919] 1
x[920] 1
x[921] 0
x[922] 1
x[923] 0
x[924] 0
x[925] 1
x[926] 0
x[927] 0
x[928] 0
x[929] 1
x[930] 0
x[931] 0
x[932] 1
x[933] 0
x[934] 1
x[935] 1
x[936] 0
x[937] 1
x[938] 0
x[939] 1
x[940] 1
x[941] 0
x[942] 1
x[943] 0
x[944] 0
x[945] 1
x[946] 0
x[947] 0
x[948] 1
x[949] 1
x[950] 1
x[951] 0
x[952] 0
x[953] 1
x[954] 1
x[955] 1
x[956] 0
x[957] 0
x[958] 1
x[959] 0
x[960] 0
x[961] 1
x[962] 1
x[963] 1
x[964] 1
x[965] 1
x[966] 1
x[967] 0
x[968] 0
x[969] 0
x[970] 1
x[971] 0
x[972] 0
x[973] 0
x[974] 1
x[975] 0
x[976] 1
x[977] 1
x[978] 1
x[979] 0
x[980] 1
x[981] 1
x[982] 1
x[983] 0
x[984] 1
x[985] 1
x[986] 1
x[987] 1
x[988] 0
x[989] 1
x[990] 1
x[991] 1
x[992] 1
x[993] 1
x[994] 1
x[995] 0
x[996] 0
x[997] 0
x[998] 1
x[999] 1
